(set-info :smt-lib-version 2.6)
(set-logic QF_S)
(set-info :source |
Generated by: Hung-En Wang, Tzung-Lin Tsai, Chun-Han Lin, Fang Yu, and Jie-Hong R. Jiang
Generated on: 2019-02-28
Generator: Stranger
Application: Security analysis of string manipulating web applications
Target solver: CVC4, Norn, Z3-str2
Publication:
Hung-En Wang, Tzung-Lin Tsai, Chun-Han Lin, Fang Yu, Jie-Hong R. Jiang:
String Analysis via Automata Manipulation with Logic Circuit Representation. CAV (1) 2016: 241-260.
|)
(set-info :license "https://creativecommons.org/licenses/by/4.0/")
(set-info :category "industrial")
(set-info :status unknown)

(declare-fun sigmaStar_0 () String)
(declare-fun sigmaStar_1 () String)
(declare-fun sigmaStar_2 () String)
(declare-fun sigmaStar_3 () String)
(declare-fun sigmaStar_4 () String)
(declare-fun sigmaStar_5 () String)
(declare-fun sigmaStar_6 () String)
(declare-fun sigmaStar_7 () String)
(declare-fun sigmaStar_8 () String)
(declare-fun literal_9 () String)
(declare-fun x_10 () String)
(declare-fun literal_11 () String)
(declare-fun x_15 () String)
(declare-fun x_16 () String)
(declare-fun epsilon () String)
(declare-fun x_17 () String)
(declare-fun literal_18 () String)
(declare-fun x_19 () String)
(declare-fun x_20 () String)
(declare-fun literal_21 () String)
(declare-fun x_23 () String)
(declare-fun x_24 () String)
(declare-fun x_25 () String)
(declare-fun literal_26 () String)
(declare-fun x_27 () String)
(declare-fun x_28 () String)
(declare-fun literal_29 () String)
(declare-fun x_31 () String)
(declare-fun x_32 () String)
(declare-fun x_33 () String)
(declare-fun literal_34 () String)
(declare-fun x_35 () String)
(assert (= literal_9 "\x3c\x2f\x74\x64\x3e\x0d\x0a\x3c\x2f\x74\x72\x3e\x0d\x0a\x3c\x74\x72\x3e\x0d\x0a\x3c\x74\x64\x20\x77\x69\x64\x74\x68\x3d\x27\x31\x25\x27\x20\x63\x6c\x61\x73\x73\x3d\x27\x74\x62\x6c\x31\x27\x20\x73\x74\x79\x6c\x65\x3d\x27\x77\x68\x69\x74\x65\x2d\x73\x70\x61\x63\x65\x3a\x6e\x6f\x77\x72\x61\x70\x27\x3e\x3c\x62\x3e"))
(assert (= x_10 (str.++ literal_9 sigmaStar_7)))
(assert (= literal_11 "\x3c\x2f\x62\x3e\x3c\x2f\x74\x64\x3e\x0d\x0a\x3c\x74\x64\x20\x63\x6c\x61\x73\x73\x3d\x27\x74\x62\x6c\x31\x27\x3e"))
(assert (= x_15 (str.++ x_10 literal_11)))
(assert (= epsilon ""))
(assert (or (= x_16 epsilon) (= x_16 sigmaStar_6) (= x_16 sigmaStar_5)))
(assert (= x_17 (str.++ x_15 x_16)))
(assert (= literal_18 "\x3c\x2f\x74\x64\x3e\x0d\x0a\x3c\x2f\x74\x72\x3e\x0d\x0a\x3c\x74\x72\x3e\x0d\x0a\x3c\x74\x64\x20\x77\x69\x64\x74\x68\x3d\x27\x31\x25\x27\x20\x63\x6c\x61\x73\x73\x3d\x27\x74\x62\x6c\x32\x27\x20\x73\x74\x79\x6c\x65\x3d\x27\x77\x68\x69\x74\x65\x2d\x73\x70\x61\x63\x65\x3a\x6e\x6f\x77\x72\x61\x70\x27\x3e\x3c\x62\x3e"))
(assert (= x_19 (str.++ x_17 literal_18)))
(assert (= x_20 (str.++ x_19 sigmaStar_8)))
(assert (= literal_21 "\x3c\x2f\x62\x3e\x3c\x2f\x74\x64\x3e\x0d\x0a\x3c\x74\x64\x20\x63\x6c\x61\x73\x73\x3d\x27\x74\x62\x6c\x32\x27\x3e"))
(assert (= x_23 (str.++ x_20 literal_21)))
(assert (or (= x_24 epsilon) (= x_24 sigmaStar_2) (= x_24 sigmaStar_0)))
(assert (= x_25 (str.++ x_23 x_24)))
(assert (= literal_26 "\x3c\x2f\x74\x64\x3e\x0d\x0a\x3c\x2f\x74\x72\x3e\x0d\x0a\x3c\x74\x72\x3e\x0d\x0a\x3c\x74\x64\x20\x77\x69\x64\x74\x68\x3d\x27\x31\x25\x27\x20\x63\x6c\x61\x73\x73\x3d\x27\x74\x62\x6c\x31\x27\x20\x73\x74\x79\x6c\x65\x3d\x27\x77\x68\x69\x74\x65\x2d\x73\x70\x61\x63\x65\x3a\x6e\x6f\x77\x72\x61\x70\x27\x3e\x3c\x62\x3e"))
(assert (= x_27 (str.++ x_25 literal_26)))
(assert (= x_28 (str.++ x_27 sigmaStar_1)))
(assert (= literal_29 "\x3c\x2f\x62\x3e\x3c\x2f\x74\x64\x3e\x0d\x0a\x3c\x74\x64\x20\x63\x6c\x61\x73\x73\x3d\x27\x74\x62\x6c\x31\x27\x3e"))
(assert (= x_31 (str.++ x_28 literal_29)))
(assert (or (= x_32 epsilon) (= x_32 sigmaStar_3) (= x_32 sigmaStar_4)))
(assert (= x_33 (str.++ x_31 x_32)))
(assert (= literal_34 "\x3c\x2f\x74\x64\x3e\x0d\x0a\x3c\x2f\x74\x72\x3e\x0d\x0a\x3c\x74\x72\x3e\x0d\x0a\x3c\x74\x64\x20\x61\x6c\x69\x67\x6e\x3d\x27\x63\x65\x6e\x74\x65\x72\x27\x20\x63\x6c\x61\x73\x73\x3d\x27\x74\x62\x6c\x31\x27\x3e\x5c\x6e"))
(assert (= x_35 (str.++ x_33 literal_34)))
(assert (str.in.re x_35 (re.++ (re.* re.allchar) (re.++ (str.to.re "\x5c\x3c\x53\x43\x52\x49\x50\x54") (re.* re.allchar)))))
(check-sat)
(exit)
